WARNING: for repeatability, setting FPU to use double precision
============================[ Problem Statistics ]=============================
|                                                                             |
|  Number of variables:           500                                         |
|  Number of clauses:           15610                                         |
|  Parse time:                   0.01 s                                       |
|                                                                             |
c ============================[ Search Statistics ]==============================
c | Conflicts |          ORIGINAL         |          LEARNT          | Progress |
c |           |    Vars  Clauses Literals |    Limit  Clauses Lit/Cl |          |
c ===============================================================================
We had 266 decisions of which only 0 were on extended
We had 87153 decisions of which only 0 were on extended
We had 110370 decisions of which only 0 were on extended
We had 133074 decisions of which only 0 were on extended
We had 156254 decisions of which only 0 were on extended
We had 178179 decisions of which only 0 were on extended
We had 192061 decisions of which only 0 were on extended
We had 206033 decisions of which only 0 were on extended
We had 219664 decisions of which only 0 were on extended
We had 233138 decisions of which only 0 were on extended
We had 246422 decisions of which only 0 were on extended
We had 259538 decisions of which only 0 were on extended
We had 272886 decisions of which only 0 were on extended
We had 286312 decisions of which only 0 were on extended
We had 299695 decisions of which only 0 were on extended
We had 313010 decisions of which only 0 were on extended
We had 326287 decisions of which only 0 were on extended
We had 339726 decisions of which only 0 were on extended
We had 353385 decisions of which only 0 were on extended
Window full
Deactivate
We had 367169 decisions of which only 0 were on extended
We had 380628 decisions of which only 0 were on extended
We had 393602 decisions of which only 0 were on extended
We had 406605 decisions of which only 0 were on extended
We had 419803 decisions of which only 0 were on extended
We had 433040 decisions of which only 0 were on extended
We had 446768 decisions of which only 0 were on extended
We had 460348 decisions of which only 0 were on extended
We had 474275 decisions of which only 0 were on extended
We had 488160 decisions of which only 0 were on extended
We had 501895 decisions of which only 0 were on extended
We had 515620 decisions of which only 0 were on extended
We had 529395 decisions of which only 0 were on extended
We had 543258 decisions of which only 0 were on extended
We had 557098 decisions of which only 0 were on extended
We had 571098 decisions of which only 0 were on extended
We had 584976 decisions of which only 0 were on extended
We had 599171 decisions of which only 0 were on extended
We had 612969 decisions of which only 0 were on extended
We had 626597 decisions of which only 0 were on extended
We had 640500 decisions of which only 0 were on extended
We had 654373 decisions of which only 0 were on extended
We had 668182 decisions of which only 0 were on extended
We had 682319 decisions of which only 0 were on extended
We had 695921 decisions of which only 0 were on extended
We had 709540 decisions of which only 0 were on extended
We had 722997 decisions of which only 0 were on extended
We had 736751 decisions of which only 0 were on extended
We had 750565 decisions of which only 0 were on extended
We had 764515 decisions of which only 0 were on extended
We had 778184 decisions of which only 0 were on extended
We had 791798 decisions of which only 0 were on extended
We had 805527 decisions of which only 0 were on extended
We had 819254 decisions of which only 0 were on extended
We had 833133 decisions of which only 0 were on extended
We had 847137 decisions of which only 0 were on extended
We had 860941 decisions of which only 0 were on extended
We had 874802 decisions of which only 0 were on extended
We had 888688 decisions of which only 0 were on extended
We had 902581 decisions of which only 0 were on extended
c ===============================================================================
restarts                  : 1384
conflicts                 : 588776         (4400 /sec)
decisions                 : 914777         (0.00 % random) (6837 /sec)
propagations              : 29273057       (218785 /sec)
conflict literals         : 26589050       (29.70 % deleted)

conflicts w/ DIP found    : 114558         (19.46 % of conflicts)
conflicts w/ dangerous DIP: 0              (0.00 % of conflicts)
conflicts w/ DIP-learning : 0              (0.00 % of conflicts)
decisions on ext vars     : 0              (0.00 % of decisions)
total ext vars            : 0           
tried delete ext vars     : 0           
deleted ext vars          : 0           
max ext vars              : 0           

Memory used               : 56.00 MB
CPU time                  : 133.798 s
DIP computation time      : 1.05479 s (0.79 % of total time)
ER_sel time               : 0.700761 s
ER_add time               : 0 s
ER_delC time              : 0 s
ER_delV time              : 0 s
ER_sub time               : 0.166665 s
ER_stat time              : 0 s

UNSATISFIABLE
